Maximize
  - 39 x0 - 45 x1 - 2 x2 - x3 - 45 x4 - 34 x5 - 18 x6 + 20 x7 + 16 x8
   - 42 x9 - 20 x10 + 0 x11 - 38 x12 + 35 x13 + 2 x14 - 42 x15 - 17 x16
   + 40 x17 + 23 x18 + 47 x19 - 25 x20 - 40 x21 - 33 x22 + 25 x23 - 47 x24
   - 42 x25 + 33 x26 - 25 x27 - 14 x28 + 17 x29 + [ - 7 x0 ^2 - 88 x0 * x1
   - 42 x0 * x2 + 46 x0 * x3 + 78 x0 * x4 - 32 x0 * x5 + 14 x0 * x6
   + 42 x0 * x7 + 96 x0 * x8 + 74 x0 * x9 + 6 x0 * x10 - 34 x0 * x11
   - 14 x0 * x12 + 48 x0 * x13 - 82 x0 * x14 + 44 x0 * x16 - 44 x0 * x17
   - 18 x0 * x18 - 12 x0 * x19 + 26 x0 * x20 + 2 x0 * x22 + 70 x0 * x23
   - 32 x0 * x24 - 50 x0 * x25 - 10 x0 * x26 + 94 x0 * x27 - 96 x0 * x28
   + 18 x0 * x29 + 22 x1 ^2 - 2 x1 * x2 - 94 x1 * x3 - 42 x1 * x4
   + 64 x1 * x5 - 98 x1 * x6 + 10 x1 * x7 + 20 x1 * x8 + 54 x1 * x9
   + 44 x1 * x10 - 42 x1 * x11 - 24 x1 * x12 - 84 x1 * x13 + 4 x1 * x14
   + 26 x1 * x15 + 70 x1 * x16 - 94 x1 * x17 - 8 x1 * x18 + 98 x1 * x19
   + 42 x1 * x20 + 78 x1 * x21 + 42 x1 * x22 + 32 x1 * x23 - 50 x1 * x24
   + 82 x1 * x25 - 22 x1 * x26 - 92 x1 * x27 - 48 x1 * x28 - 36 x1 * x29
   + 31 x2 ^2 - 26 x2 * x3 - 34 x2 * x4 + 14 x2 * x5 + 54 x2 * x6
   - 74 x2 * x7 + 30 x2 * x8 + 82 x2 * x9 - 22 x2 * x10 - 22 x2 * x11
   - 54 x2 * x12 - 20 x2 * x13 + 12 x2 * x14 - 70 x2 * x15 + 70 x2 * x16
   - 88 x2 * x17 - 12 x2 * x19 + 38 x2 * x20 - 38 x2 * x21 + 56 x2 * x22
   - 4 x2 * x23 - 96 x2 * x24 + 14 x2 * x25 - 54 x2 * x26 - 4 x2 * x27
   - 72 x2 * x28 + 70 x2 * x29 + 4 x3 ^2 + 42 x3 * x4 + 92 x3 * x5
   - 52 x3 * x6 - 76 x3 * x7 + 88 x3 * x8 + 2 x3 * x9 + 30 x3 * x10
   - 82 x3 * x11 + 30 x3 * x12 - 32 x3 * x13 - 58 x3 * x14 + 84 x3 * x15
   + 46 x3 * x16 + 70 x3 * x17 - 40 x3 * x18 + 80 x3 * x19 + 12 x3 * x20
   + 46 x3 * x21 - 98 x3 * x22 + 18 x3 * x23 + 92 x3 * x24 + 72 x3 * x25
   - 88 x3 * x26 + 36 x3 * x27 - 6 x3 * x28 + 40 x3 * x29 + 24 x4 ^2
   + 66 x4 * x5 + 94 x4 * x6 - 46 x4 * x7 + 80 x4 * x8 + 94 x4 * x9
   - 50 x4 * x10 - 24 x4 * x11 - 68 x4 * x12 - 50 x4 * x13 - 10 x4 * x14
   + 76 x4 * x15 + 82 x4 * x16 + 78 x4 * x17 + 66 x4 * x18 - 94 x4 * x19
   + 62 x4 * x20 - 76 x4 * x21 + 46 x4 * x22 + 24 x4 * x23 - 32 x4 * x24
   - 76 x4 * x25 - 72 x4 * x26 + 24 x4 * x27 + 82 x4 * x28 - 14 x4 * x29
   + 23 x5 ^2 - 92 x5 * x6 - 36 x5 * x7 - 96 x5 * x8 + 76 x5 * x9
   - 16 x5 * x10 + 10 x5 * x11 + 16 x5 * x12 - 78 x5 * x13 - 86 x5 * x14
   + 30 x5 * x15 + 68 x5 * x16 + 48 x5 * x17 + 10 x5 * x18 - 38 x5 * x19
   + 80 x5 * x20 + 60 x5 * x21 + 22 x5 * x22 + 72 x5 * x23 + 18 x5 * x24
   + 94 x5 * x25 + 50 x5 * x26 - 96 x5 * x27 - 50 x5 * x28 + 24 x5 * x29
   + 92 x6 * x7 - 56 x6 * x8 - 82 x6 * x9 - 50 x6 * x10 + 16 x6 * x11
   + 76 x6 * x12 + 22 x6 * x13 + 40 x6 * x14 - 36 x6 * x15 + 50 x6 * x16
   + 94 x6 * x17 - 76 x6 * x18 + 26 x6 * x19 - 66 x6 * x20 + 80 x6 * x21
   + 62 x6 * x22 + 64 x6 * x23 + 18 x6 * x24 + 38 x6 * x25 + 54 x6 * x26
   + 10 x6 * x27 + 74 x6 * x28 - 72 x6 * x29 + 41 x7 ^2 - 22 x7 * x8
   - 16 x7 * x9 - 90 x7 * x10 - 8 x7 * x11 - 34 x7 * x12 + 56 x7 * x13
   + 50 x7 * x14 + 40 x7 * x15 + 36 x7 * x16 - 34 x7 * x17 + 44 x7 * x18
   - 88 x7 * x19 - 42 x7 * x20 + 18 x7 * x21 + 44 x7 * x22 + 90 x7 * x23
   + 12 x7 * x24 - 72 x7 * x25 - 4 x7 * x26 - 48 x7 * x27 - 66 x7 * x28
   + 80 x7 * x29 - 24 x8 ^2 - 14 x8 * x9 - 10 x8 * x10 - 90 x8 * x11
   + 66 x8 * x12 - 70 x8 * x13 - 40 x8 * x14 + 86 x8 * x15 + 84 x8 * x16
   - 12 x8 * x17 - 74 x8 * x18 - 38 x8 * x19 - 74 x8 * x20 + 86 x8 * x21
   + 44 x8 * x22 - 98 x8 * x23 + 20 x8 * x24 - 18 x8 * x25 - 42 x8 * x26
   - 18 x8 * x27 - 2 x8 * x28 - 4 x8 * x29 + 38 x9 ^2 - 8 x9 * x10
   - 94 x9 * x11 + 72 x9 * x12 - 82 x9 * x13 - 20 x9 * x14 - 94 x9 * x15
   - 40 x9 * x16 - 24 x9 * x17 + 50 x9 * x18 + 6 x9 * x19 + 24 x9 * x20
   + 82 x9 * x21 - 54 x9 * x22 + 64 x9 * x23 - 88 x9 * x24 + 46 x9 * x25
   - 70 x9 * x26 + 68 x9 * x27 - 68 x9 * x28 + 54 x9 * x29 + 40 x10 ^2
   - 94 x10 * x11 - 10 x10 * x12 + 80 x10 * x13 - 84 x10 * x14
   + 84 x10 * x15 - 64 x10 * x16 - 56 x10 * x17 + 80 x10 * x18
   + 2 x10 * x19 - 52 x10 * x20 - 94 x10 * x21 + 18 x10 * x22
   - 50 x10 * x24 - 82 x10 * x25 - 32 x10 * x26 - 8 x10 * x27
   - 40 x10 * x28 + 10 x10 * x29 + 26 x11 ^2 - 44 x11 * x12 + 58 x11 * x13
   + 76 x11 * x14 + 74 x11 * x15 - 14 x11 * x16 + 40 x11 * x17
   - 88 x11 * x18 - 6 x11 * x19 - 98 x11 * x20 + 90 x11 * x21
   - 36 x11 * x22 + 66 x11 * x23 - 98 x11 * x24 - 24 x11 * x25
   + 76 x11 * x26 - 68 x11 * x27 + 42 x11 * x28 - 6 x11 * x29 - 15 x12 ^2
   - 14 x12 * x13 + 12 x12 * x14 - 16 x12 * x15 + 20 x12 * x16
   - 38 x12 * x17 - 52 x12 * x18 + 4 x12 * x19 + 2 x12 * x20 - 18 x12 * x21
   + 70 x12 * x22 + 32 x12 * x23 - 20 x12 * x24 - 30 x12 * x25
   + 90 x12 * x26 - 52 x12 * x27 - 78 x12 * x28 + 14 x12 * x29 + 30 x13 ^2
   - 40 x13 * x14 + 20 x13 * x15 - 70 x13 * x16 - 50 x13 * x17
   - 2 x13 * x18 + 20 x13 * x19 - 76 x13 * x20 + 42 x13 * x21
   - 38 x13 * x22 + 26 x13 * x23 + 10 x13 * x24 + 42 x13 * x25
   + 60 x13 * x26 - 84 x13 * x27 - 44 x13 * x28 + 50 x13 * x29 + 35 x14 ^2
   - 64 x14 * x15 + 58 x14 * x16 + 80 x14 * x17 + 20 x14 * x18
   + 80 x14 * x19 - 60 x14 * x20 - 68 x14 * x21 + 62 x14 * x22
   - 36 x14 * x23 - 54 x14 * x24 - 4 x14 * x25 + 56 x14 * x26
   + 58 x14 * x27 - 94 x14 * x28 - 82 x14 * x29 + 24 x15 ^2 + 12 x15 * x16
   - 28 x15 * x17 - 40 x15 * x18 + 56 x15 * x19 - 24 x15 * x20
   - 28 x15 * x21 - 18 x15 * x22 - 14 x15 * x23 + 32 x15 * x24
   + 96 x15 * x25 + 64 x15 * x26 - 76 x15 * x27 - 32 x15 * x28
   - 24 x15 * x29 - 48 x16 ^2 - 24 x16 * x17 - 90 x16 * x18 - 22 x16 * x19
   + 44 x16 * x20 + 68 x16 * x21 + 72 x16 * x22 + 4 x16 * x23
   + 88 x16 * x24 + 40 x16 * x25 + 94 x16 * x26 - 20 x16 * x27
   + 50 x16 * x28 - 96 x16 * x29 - 35 x17 ^2 + 26 x17 * x18 + 96 x17 * x19
   - 26 x17 * x20 - 86 x17 * x21 - 72 x17 * x22 + 44 x17 * x23
   - 26 x17 * x24 - 16 x17 * x25 + 84 x17 * x26 - 80 x17 * x27
   - 88 x17 * x28 - 56 x17 * x29 + 47 x18 ^2 + 56 x18 * x19 - 88 x18 * x20
   + 72 x18 * x21 - 94 x18 * x22 - 68 x18 * x24 - 44 x18 * x25
   + 42 x18 * x26 + 44 x18 * x27 + 86 x18 * x28 + 26 x18 * x29 - 24 x19 ^2
   + 30 x19 * x20 - 28 x19 * x21 + 76 x19 * x22 + 84 x19 * x23
   + 60 x19 * x24 - 12 x19 * x25 + 52 x19 * x26 - 24 x19 * x27
   + 54 x19 * x28 + 24 x19 * x29 - 8 x20 ^2 - 62 x20 * x21 + 78 x20 * x22
   + 26 x20 * x23 - 76 x20 * x24 + 16 x20 * x25 + 60 x20 * x26
   + 42 x20 * x27 + 76 x20 * x28 + 12 x20 * x29 + 49 x21 ^2 + 72 x21 * x22
   - 48 x21 * x23 + 94 x21 * x24 + 18 x21 * x25 - 2 x21 * x26
   - 94 x21 * x27 - 82 x21 * x28 - 84 x21 * x29 - 49 x22 ^2 + 4 x22 * x23
   + 84 x22 * x24 - 16 x22 * x25 + 26 x22 * x26 - 22 x22 * x27
   + 26 x22 * x28 + 70 x22 * x29 - 8 x23 ^2 + 34 x23 * x24 - 82 x23 * x25
   + 6 x23 * x26 + 94 x23 * x27 - 28 x23 * x28 - 74 x23 * x29 + 49 x24 ^2
   + 82 x24 * x25 - 54 x24 * x26 + 44 x24 * x27 + 46 x24 * x28
   + 4 x24 * x29 + 28 x25 ^2 + 48 x25 * x26 - 46 x25 * x27 - 46 x25 * x28
   + 74 x25 * x29 + 11 x26 ^2 + 36 x26 * x27 - 38 x26 * x28 - 58 x26 * x29
   + 5 x27 ^2 - 28 x27 * x28 + 64 x27 * x29 - 25 x28 ^2 + 4 x28 * x29
   + 38 x29 ^2 ] / 2 
Subject To
Bounds
 x0 <= 1
 x1 <= 1
 x2 <= 1
 x3 <= 1
 x4 <= 1
 x5 <= 1
 x6 <= 1
 x7 <= 1
 x8 <= 1
 x9 <= 1
 x10 <= 1
 x11 <= 1
 x12 <= 1
 x13 <= 1
 x14 <= 1
 x15 <= 1
 x16 <= 1
 x17 <= 1
 x18 <= 1
 x19 <= 1
 x20 <= 1
 x21 <= 1
 x22 <= 1
 x23 <= 1
 x24 <= 1
 x25 <= 1
 x26 <= 1
 x27 <= 1
 x28 <= 1
 x29 <= 1
End
